COLUMNS

passenger_count
pickup_ID
dropoff_ID
request_time_sec
pickup_district
dropoff_district
LDuals
IDuals
vehicle_ID
pick_position
drop_position

REQUESTS_INFO
1      332       604       29222     87        189       144       144       16        1         2         
1      325       183       29207     299       178       142       142       42        1         3         
3      347       715       29226     299       131       190       190       138       1         3         
1      216       604       29225     178       189       131       131       234       1         2         
1      885       884       29241     290       290       114       114       237       1         2         
1      839       627       29230     290       189       174       174       238       1         3         
2      929       531       29249     290       189       163       163       244       1         4         
2      909       794       29203     290       290       222       222       244       2         3         
1      456       357       29240     52        277       116       116       246       1         4         
1      556       739       29244     199       189       92        92        252       1         2         
2      841       723       28929     290       290       505       505       262       1         2         
1      887       1144      29191     290       84        237       237       342       1         2         
3      746       559       29228     290       189       132       132       366       1         3         
1      926       46        29242     290       98        143       143       500       1         4         
1      526       557       29228     52        189       154       154       528       1         2         
3      883       739       29143     290       189       291       291       579       1         2         
1      928       1218      29219     290       84        199       199       580       1         3         
3      927       621       29173     290       280       265       265       615       1         2         
1      817       577       29246     290       189       142       142       630       1         3         
1      893       649       29247     291       189       89        89        662       1         4         
3      889       824       29126     290       291       298       298       673       1         3         
1      641       545       29247     131       52        110       110       684       1         2         
2      769       971       29190     290       290       173       173       724       1         2         
1      710       571       29241     131       52        120       120       732       1         2         
1      523       441       29220     52        168       156       156       752       1         2         
3      887       396       29024     290       119       428       428       770       1         2         
1      814       745       29227     290       290       154       154       793       1         2         
3      308       697       29242     127       189       194       194       800       1         2         
1      837       783       29246     290       50        150       150       804       1         3         
3      347       715       29226     299       131       190       190       840       1         2         
1      909       925       29163     290       290       241       241       843       1         2         
4      817       20        29174     290       98        241       241       858       1         2         
2      887       924       29224     290       290       192       192       865       1         3         
1      908       925       29224     290       290       189       189       930       1         3         
1      1023      649       29230     291       189       136       136       982       1         4         
2      767       527       29245     290       52        98        98        989       1         4         
1      791       673       29230     290       189       148       148       993       1         2         
1      836       571       29249     290       52        135       135       998       1         3         
1      981       1005      29226     291       50        128       128       999       1         2         
1      556       505       29225     199       52        127       127       1017      1         2         
1      948       604       29220     290       189       193       193       1100      1         2         
1      1127      697       29226     291       189       156       156       1106      1         2         
1      1047      602       29248     291       189       142       142       1110      1         3         
1      726       1517      29226     290       296       136       136       1221      1         3         
1      949       936       29228     290       291       162       162       1249      1         3         
1      959       768       29210     291       290       159       159       1339      1         2         
2      444       48        29222     168       98        104       104       1712      1         2         
1      768       711       29233     290       131       128       128       1760      1         3         
1      816       508       29230     290       199       170       170       1815      1         2         
1      950       460       29191     290       189       217       217       1831      1         2         
3      889       788       29113     290       290       341       341       1857      1         2         
3      813       372       29243     290       119       160       160       1872      1         3         
1      369       716       29222     52        189       187       187       1902      1         2         
1      436       735       29245     100       131       122       122       1915      1         3         
1      310       580       29244     127       189       156       156       1990      1         3         
1      881       1032      29250     290       84        0         0         0         0         0         
1      155       858       29250     286       290       0         0         0         0         0         
1      739       848       29250     189       291       0         0         0         0         0         
1      860       947       29250     290       290       0         0         0         0         0         
1      963       597       29251     50        131       0         0         0         0         0         
1      233       604       29251     206       189       0         0         0         0         0         
1      578       372       29251     189       119       0         0         0         0         0         
1      189       652       29251     286       189       0         0         0         0         0         
3      364       376       29251     299       168       0         0         0         0         0         
1      627       579       29251     189       189       0         0         0         0         0         
1      248       647       29252     266       280       0         0         0         0         0         
1      723       652       29252     290       189       0         0         0         0         0         
1      442       355       29252     168       119       0         0         0         0         0         
1      937       840       29252     291       290       0         0         0         0         0         
1      527       824       29252     52        291       0         0         0         0         0         
2      504       694       29252     52        189       0         0         0         0         0         
3      504       694       29252     52        189       0         0         0         0         0         
1      621       922       29253     280       50        0         0         0         0         0         
1      794       604       29253     290       189       0         0         0         0         0         
1      556       388       29253     199       299       0         0         0         0         0         
1      523       526       29254     52        52        0         0         0         0         0         
1      793       556       29254     290       199       0         0         0         0         0         
1      667       479       29254     131       52        0         0         0         0         0         
1      824       720       29254     291       290       0         0         0         0         0         
3      549       738       29254     52        189       0         0         0         0         0         
2      549       738       29254     52        189       0         0         0         0         0         
2      596       574       29255     131       189       0         0         0         0         0         
1      598       697       29255     189       189       0         0         0         0         0         
1      549       602       29255     52        189       0         0         0         0         0         
1      531       604       29255     189       189       0         0         0         0         0         
1      864       530       29255     290       189       0         0         0         0         0         
1      527       603       29256     52        189       0         0         0         0         0         
1      512       561       29256     199       189       0         0         0         0         0         
1      724       536       29256     290       189       0         0         0         0         0         
2      560       793       29256     189       290       0         0         0         0         0         
1      985       693       29256     50        280       0         0         0         0         0         
3      560       793       29256     189       290       0         0         0         0         0         
1      882       604       29256     290       189       0         0         0         0         0         
1      1094      945       29256     84        50        0         0         0         0         0         
1      369       504       29256     52        52        0         0         0         0         0         
3      297       390       29257     277       52        0         0         0         0         0         
1      741       534       29257     50        199       0         0         0         0         0         
2      546       232       29257     52        266       0         0         0         0         0         
1      940       768       29257     291       290       0         0         0         0         0         
1      484       555       29257     189       199       0         0         0         0         0         
2      297       390       29257     277       52        0         0         0         0         0         
1      99        173       29258     286       286       0         0         0         0         0         
2      1128      910       29258     291       290       0         0         0         0         0         
1      1196      536       29259     129       189       0         0         0         0         0         
1      701       556       29259     290       199       0         0         0         0         0         
3      663       938       29259     131       291       0         0         0         0         0         
1      983       694       29259     291       189       0         0         0         0         0         
1      981       120       29259     291       57        0         0         0         0         0         
1      466       581       29260     199       189       0         0         0         0         0         
1      526       593       29260     52        52        0         0         0         0         0         
2      345       533       29261     299       199       0         0         0         0         0         
3      937       718       29261     291       189       0         0         0         0         0         
1      991       371       29261     290       52        0         0         0         0         0         
3      937       718       29261     291       189       0         0         0         0         0         
1      1001      827       29261     291       291       0         0         0         0         0         
1      527       555       29262     52        199       0         0         0         0         0         
1      840       35        29262     290       98        0         0         0         0         0         
1      487       375       29262     199       119       0         0         0         0         0         
1      620       648       29262     131       189       0         0         0         0         0         
1      508       552       29262     199       189       0         0         0         0         0         
1      718       875       29263     189       291       0         0         0         0         0         
3      418       721       29263     168       290       0         0         0         0         0         
2      418       721       29263     168       290       0         0         0         0         0         
2      345       369       29264     299       52        0         0         0         0         0         
3      345       369       29264     299       52        0         0         0         0         0         
1      527       728       29264     52        290       0         0         0         0         0         
1      1324      1211      29264     129       129       0         0         0         0         0         
1      837       116       29264     290       9         0         0         0         0         0         
1      1245      1046      29264     192       291       0         0         0         0         0         
3      269       949       29265     127       290       0         0         0         0         0         
1      258       670       29265     87        280       0         0         0         0         0         
1      772       724       29265     290       290       0         0         0         0         0         
1      894       670       29266     291       280       0         0         0         0         0         
2      972       628       29266     290       189       0         0         0         0         0         
1      527       390       29266     52        52        0         0         0         0         0         
1      350       574       29266     127       189       0         0         0         0         0         
2      419       507       29266     168       189       0         0         0         0         0         
1      573       600       29266     189       280       0         0         0         0         0         
1      817       397       29266     290       168       0         0         0         0         0         
1      292       416       29266     87        100       0         0         0         0         0         
1      487       355       29267     199       119       0         0         0         0         0         
1      466       627       29267     199       189       0         0         0         0         0         
1      265       116       29267     299       9         0         0         0         0         0         
1      876       720       29267     50        290       0         0         0         0         0         
1      992       1016      29267     290       84        0         0         0         0         0         
2      377       748       29268     168       290       0         0         0         0         0         
1      608       212       29268     189       266       0         0         0         0         0         
1      596       695       29268     131       189       0         0         0         0         0         
2      549       593       29268     52        52        0         0         0         0         0         
1      836       583       29268     290       189       0         0         0         0         0         
1      34        48        29268     98        98        0         0         0         0         0         
1      269       117       29268     127       286       0         0         0         0         0         
1      189       579       29269     286       189       0         0         0         0         0         
1      501       414       29269     52        100       0         0         0         0         0         
1      915       116       29270     291       9         0         0         0         0         0         
1      913       621       29270     291       280       0         0         0         0         0         
1      269       395       29270     127       100       0         0         0         0         0         
1      859       393       29271     290       52        0         0         0         0         0         
1      349       534       29271     127       199       0         0         0         0         0         
2      115       138       29271     9         57        0         0         0         0         0         
1      364       304       29271     299       299       0         0         0         0         0         
2      374       35        29272     119       98        0         0         0         0         0         
1      354       575       29272     119       189       0         0         0         0         0         
2      484       228       29272     189       266       0         0         0         0         0         
1      771       35        29272     290       98        0         0         0         0         0         
1      152       373       29273     9         119       0         0         0         0         0         
1      1489      697       29273     296       189       0         0         0         0         0         
1      622       552       29273     280       189       0         0         0         0         0         
1      768       769       29273     290       290       0         0         0         0         0         
1      766       858       29274     290       290       0         0         0         0         0         
1      399       116       29274     168       9         0         0         0         0         0         
3      1000      732       29274     291       131       0         0         0         0         0         
1      813       646       29274     290       280       0         0         0         0         0         
3      1000      732       29274     291       131       0         0         0         0         0         
2      951       864       29274     290       290       0         0         0         0         0         
1      928       925       29275     290       290       0         0         0         0         0         
1      511       374       29276     199       119       0         0         0         0         0         
1      675       669       29276     189       280       0         0         0         0         0         
1      419       352       29276     168       119       0         0         0         0         0         
1      441       580       29276     168       189       0         0         0         0         0         
1      663       669       29276     131       280       0         0         0         0         0         
2      370       413       29276     52        52        0         0         0         0         0         
3      815       724       29276     290       290       0         0         0         0         0         
3      815       724       29276     290       290       0         0         0         0         0         
1      857       528       29277     290       52        0         0         0         0         0         
1      214       268       29277     207       299       0         0         0         0         0         
1      233       399       29277     206       168       0         0         0         0         0         
1      735       578       29277     131       189       0         0         0         0         0         
1      325       727       29277     299       290       0         0         0         0         0         
1      598       717       29277     189       189       0         0         0         0         0         
1      1187      651       29278     291       189       0         0         0         0         0         
1      886       1032      29278     290       84        0         0         0         0         0         
1      1076      1054      29278     84        84        0         0         0         0         0         
1      527       390       29278     52        52        0         0         0         0         0         
1      439       398       29278     189       168       0         0         0         0         0         
1      948       903       29278     290       290       0         0         0         0         0         
3      478       285       29279     52        299       0         0         0         0         0         
1      905       748       29279     290       290       0         0         0         0         0         
1      527       399       29279     52        168       0         0         0         0         0         
1      652       189       29279     189       286       0         0         0         0         0         
1      268       698       29279     299       189       0         0         0         0         0         
1      733       627       29279     131       189       0         0         0         0         0         
3      478       285       29279     52        299       0         0         0         0         0         
1      848       647       29279     291       280       0         0         0         0         0         
